memory 350 mb

molecule {
  O    0.000000000000    0.000000000000   -0.064494967588
  H    0.000000000000   -0.749045996700    0.511790969153
  H   -0.000000000000    0.749045996700    0.511790969153
}

set basis sto-3g
energy('scf')
