memory 350 mb

molecule {
  O    0.000000000000    0.000000000000   -0.064937611070
  H    0.000000000000   -0.749045996700    0.515303505789
  H   -0.000000000000    0.749045996700    0.515303505789
}

set basis sto-3g
energy('scf')
