memory 350 mb

molecule {
  O    0.000000000000    0.000000000000   -0.064716289329
  H    0.000000000000   -0.747182350068    0.513547237471
  H   -0.000000000000    0.747182350068    0.513547237471
}

set basis sto-3g
energy('scf')
